50

96 28 194
93 43 372
86 5 188
86 12 384
85 39 369
83 28 283
80 4 304
80 32 304
80 9 459
79 16 470
77 9 250
68 20 252
67 5 185
64 22 425
64 12 246
63 22 273
60 6 341
57 15 410
55 16 466
54 23 294
54 3 355
54 3 466
54 17 449
52 10 429
52 4 484
52 0 246
51 3 383
44 21 428
43 11 373
41 18 294
41 1 304
39 9 191
39 5 473
39 16 275
38 11 462
36 2 341
36 14 192
35 5 397
34 12 395
34 6 252
31 4 430
31 10 230
29 4 449
29 5 266
28 4 255
24 11 310
23 0 450
22 2 206
22 9 208
20 7 493
